32	0

0	6	2	3	4	7	5	9
8	2	10	11
7	2	10	11
1	1	6
8	2	10	11
1	3	8	10	11
3	3	8	10	11
6	3	12	14	15
5	2	10	11
1	3	12	14	15
1	3	12	14	15
1	2	13	21
2	3	16	18	20
3	3	16	18	20
7	3	17	18	19
6	2	17	19
1	4	22	23	24	25
3	4	22	23	24	25
8	3	26	27	28
10	1	24
10	3	23	24	25
10	3	26	27	28
3	3	26	27	28
5	3	26	27	28
6	3	26	27	28
1	1	29
1	1	29
7	1	32
1	1	30
1	1	31
3	1	32
0	0
